c --- [ banner ] -------------------------------------------------------------
c 
c CaDiCaL Radically Simplified CDCL SAT Solver
c Copyright (c) 2016-2021 A. Biere, M. Fleury, N. Froleyks
c 
c Version 1.5.2 a5f15211db36c3956764e18194dd5bd63bf3b5e6
c g++ (GCC) 9.3.0 -Wall -Wextra -O3 -DNDEBUG
c Fri Oct 21 01:27:37 EDT 2022 Linux gra-login3 3.10.0-1160.66.1.el7.x86_64 x86_64
c 
c --- [ limit ] --------------------------------------------------------------
c 
c setting conflict limit to 200000 conflicts (due to '200000')
c 
c --- [ parsing input ] ------------------------------------------------------
c 
c reading DIMACS file from '33.cubes5136.adj'
c opening file to read '33.cubes5136.adj'
c found 'p cnf 6160 1595478' header
c parsed 1595478 clauses in 18.93 seconds process time
c closing file '33.cubes5136.adj'
c after reading 1457566795 bytes 1390.0 MB
c 
c --- [ options ] ------------------------------------------------------------
c 
c all options are set to their default value
c 
c --- [ solving ] ------------------------------------------------------------
c 
c time measured in process time since initialization
c 
c  seconds    reductions  redundant   irredundant
c          MB     restarts       trail       variables
c            level   conflicts       glue         remaining
c 
c * 18.93 1374  0 0   0    0    0  0% 0 1595422 2423 39%
c { 19.88 1422  0 0   0    0    0  0% 0 1595422 2423 39%
c i 23.48 1490 333 0   3   53   41 28% 23 1595422 2422 39%
c i 23.58 1490 324 0   4   55   42 28% 24 1595422 2421 39%
c i 23.93 1492 274 0   8   69   55 28% 27 1595422 2420 39%
c i 24.04 1493 258 0   8   74   59 28% 27 1595422 2419 39%
c i 24.14 1493 246 0   9   78   62 28% 28 1595422 2418 39%
c i 24.20 1494 235 0  11   82   65 28% 28 1595422 2417 39%
c i 25.36 1499 183 0  21  120   99 28% 30 1595422 2416 39%
c i 25.52 1499 175 0  23  128  106 28% 31 1595422 2415 39%
c i 25.54 1499 173 0  23  130  107 28% 31 1595422 2414 39%
c i 26.54 1506 153 0  35  174  148 29% 38 1595422 2413 39%
c i 26.86 1507 147 0  41  209  175 29% 43 1595422 2412 39%
c i 27.19 1508 137 0  47  236  190 29% 44 1595422 2411 39%
c i 27.78 1508 135 0  48  260  212 29% 43 1595422 2410 39%
c i 27.94 1508 135 0  49  275  225 29% 44 1595422 2409 39%
c i 28.13 1508 133 0  52  283  231 29% 44 1595422 2408 39%
c - 31.98 1463 128 1  53  300  243 28% 43 373611 2408 39%
c i 32.73 1430 128 1  53  346  285 28% 43 373611 2407 39%
c i 33.16 1430 125 1  56  367  304 29% 43 373611 2406 39%
c 
c  seconds     reductions  redundant   irredundant
c          MB      restarts       trail       variables
c             level   conflicts       glue         remaining
c 
c i 33.39 1430 120 1  59  430  362 29% 43 373611 2405 39%
c i 33.65 1430 115 1  60  507  425 29% 42 373611 2404 39%
c i 33.85 1430 110 1  60  564  480 29% 41 373611 2403 39%
c i 34.03 1430 99 1  68  683  578 29% 40 373611 2402 39%
c i 34.20 1430 96 1  68  726  609 29% 39 373611 2385 39%
c i 34.32 1430 94 1  68  744  626 29% 38 373611 2384 39%
c i 34.40 1430 91 1  68  773  649 29% 37 373611 2383 39%
c i 34.43 1430 90 1  68  790  662 29% 37 373611 2382 39%
c i 34.48 1430 87 1  68  822  685 29% 36 373611 2381 39%
c i 34.70 1430 81 1  68  895  735 29% 34 373611 2380 39%
c i 34.80 1430 80 1  68  929  761 29% 34 373611 2376 39%
c i 34.81 1430 79 1  68  940  767 29% 33 373611 2375 39%
c i 34.82 1430 79 1  68  945  770 29% 33 373611 2374 39%
c i 34.90 1430 75 1  68  996  797 29% 32 373611 2373 39%
c } 34.90 1430 75 1  68 1000  797 29% 32 373611 2373 39%
c [ 34.90 1430  0 1  68 1000  797  0% 0 373611 2373 39%
c O 34.94 1430  8 1  68 1004  800 29% 8 373611 2373 39%
c i 34.94 1430  7 1  68 1005  800 26% 6 373611 2321 38%
c i 35.39 1430 14 1  68 1070  839 25% 11 373611 2320 38%
c i 35.49 1430 18 1  68 1109  864 27% 13 373611 2319 38%
c 
c  seconds    reductions  redundant   irredundant
c          MB     restarts       trail       variables
c            level   conflicts       glue         remaining
c 
c i 35.54 1430 19 1  68 1135  880 28% 14 373611 2318 38%
c i 35.58 1430 20 1  68 1171  898 29% 16 373611 2317 38%
c i 35.68 1430 21 1  68 1237  947 29% 17 373611 2316 38%
c - 36.69 1571 22 2  68 1244  842 29% 17 371991 2316 38%
c i 37.02 1571 22 2  68 1313  880 30% 18 371991 2315 38%
c i 37.05 1571 22 2  68 1335  889 30% 18 371991 2314 38%
c i 37.08 1571 21 2  68 1373  907 30% 17 371991 2313 38%
c i 37.12 1571 21 2  68 1463  950 30% 18 371991 2312 38%
c i 37.28 1571 21 2  68 1715 1080 31% 17 371991 2311 38%
c i 37.29 1571 21 2  68 1728 1083 31% 17 371991 2310 38%
c i 37.87 1571 21 2  69 2370 1448 31% 17 371991 2309 37%
c i 37.91 1571 21 2  69 2447 1502 31% 18 371991 2308 37%
c - 38.66 1568 21 3  69 2660 1251 31% 18 371967 2308 37%
c i 39.52 1568 20 3  69 2923 1414 53% 17 371967 2307 37%
c i 39.61 1568 20 3  69 2998 1456 52% 17 371967 2306 37%
c ] 39.61 1568 20 3  69 3000 1458 52% 17 371967 2306 37%
c { 39.61 1568 75 3  69 3000 1458 77% 32 371967 2306 37%
c F 39.67 1568 75 3  69 3005 1463 77% 32 371967 2306 37%
c i 40.44 1568 70 3  69 3143 1585 74% 31 371967 2305 37%
c i 40.52 1568 69 3  69 3182 1620 73% 31 371967 2304 37%
c 
c  seconds    reductions  redundant   irredundant
c          MB     restarts       trail       variables
c            level   conflicts       glue         remaining
c 
c i 40.59 1568 66 3  69 3268 1699 71% 30 371967 2303 37%
c i 42.40 1568 67 3 100 3501 1892 67% 31 371967 2302 37%
c - 44.05 1566 55 4 111 4547 2057 59% 30 371949 2302 37%
c i 44.75 1566 53 4 119 4868 2317 58% 29 371949 2301 37%
c i 44.80 1566 52 4 119 4890 2337 58% 29 371949 2300 37%
c i 44.86 1565 52 4 122 4925 2367 58% 29 371949 2299 37%
c d 45.63 1566 52 4 123 5000 2428 57% 29 371918 2288 37%
c p 55.50 1566 52 4 123 5000 7762 57% 29 371918 2193 36%
c d 56.12 1566 52 4 123 5000 7570 57% 29 306214 2186 35%
c d 56.34 1566 52 4 123 5000 7570 57% 29 306212 2185 35%
c # 57.97 1566 45 4 123 6009 8319 55% 26 306212 2185 35%
c - 58.85 1518 41 5 123 6902 2910 53% 25 306212 2185 35%
c } 58.93 1518 40 5 123 7005 2977 53% 24 306212 2185 35%
c [ 58.93 1518 20 5 123 7005 2977 52% 17 306212 2185 35%
c - 60.26 1398 22 6 125 9576 3250 51% 19 306212 2185 35%
c I 60.54 1398 22 6 125 10011 3528 51% 19 306212 2185 35%
c - 65.76 1520 28 7 127 12696 3571 50% 23 306212 2185 35%
c 2 68.15 1520 29 7 128 15000 6350 50% 25 306212 2185 35%
c p 70.33 1520 29 7 128 15000 10002 50% 25 306212 2185 35%
c ] 70.48 1520 29 7 128 15005 10007 50% 25 306212 2185 35%
c 
c  seconds    reductions    redundant   irredundant
c          MB     restarts         trail       variables
c            level    conflicts        glue         remaining
c 
c { 70.48 1520 40 7 128 15005 10007 53% 24 306212 2185 35%
c B 70.56 1520 40 7 128 15015 10015 53% 24 306212 2185 35%
c - 72.41 1398 38 8 179 16262 4236 52% 24 306212 2185 35%
c s 80.06 1398 36 8 302 18726 6048 51% 23 304283 2185 35%
c v 85.67 1398 36 8 302 18726 6048 51% 23 304268 2185 35%
c t 85.78 1398 36 8 302 18726 6036 51% 23 304257 2185 35%
c e 86.96 1399 36 8 302 18726 5854 51% 23 302044 913 15%
c s 87.08 1399 36 8 302 18726 5854 51% 23 301075 913 15%
c - 92.41 1399 35 9 361 20276 4998 69% 23 301075 913 15%
c W 93.67 1399 34 9 382 21017 5501 69% 22 301075 913 15%
c - 95.89 1399 32 10 449 24712 5222 70% 21 301075 913 15%
c F 97.36 1399 29 10 460 28019 7129 70% 20 301075 913 15%
c - 97.90 1399 28 11 460 29595 5675 71% 20 301075 913 15%
c 2 98.05 1399 28 11 460 30000 6683 71% 20 301073 913 15%
c p 103.36 1399 28 11 460 30000 9448 71% 20 301073 907 15%
c } 103.88 1399 27 11 460 30837 9942 70% 19 301073 907 15%
c 1 103.88 1399 27 11 460 30837 9942 70% 19 301073 907 15%
c 
c --- [ writing output ] -----------------------------------------------------
c 
c writing simplified CNF to DIMACS file 'simp/33.cubes5136.adj.simp1'
c * 103.88 1399 27 11 460 30837 9942 70% 19 301073 907 15%
c opening file to write 'simp/33.cubes5136.adj.simp1'
c writing 'p cnf 6160 301055' header
c closing file 'simp/33.cubes5136.adj.simp1'
c after writing 139805864 bytes 133.3 MB
c wrote 301055 clauses in 1.14 seconds process time
c 
c --- [ writing extension ] --------------------------------------------------
c 
c writing extension stack to 'simp/33.cubes5136.adj.ext1'
c opening file to write 'simp/33.cubes5136.adj.ext1'
c closing file 'simp/33.cubes5136.adj.ext1'
c after writing 85750 bytes 0.1 MB
c wrote 3819 witnesses in 0.00 seconds process time
c 
c --- [ result ] -------------------------------------------------------------
c 
s SATISFIABLE
c 
c --- [ run-time profiling ] -------------------------------------------------
c 
c process time taken by individual solving procedures
c (percentage relative to process time for solving)
c 
c        57.69   67.90% search
c        42.48   50.01% unstable
c        27.27   32.10% simplify
c        18.93   22.28% parse
c        17.25   20.30% probe
c        13.97   16.44% stable
c         5.68    6.69% vivify
c         2.25    2.65% elim
c         0.95    1.12% lucky
c         0.28    0.33% walk
c         0.22    0.26% subsume
c         0.17    0.20% ternary
c   =================================
c        84.95   80.89% solve
c 
c last line shows process time for solving
c (percentage relative to total process time)
c 
c --- [ statistics ] ---------------------------------------------------------
c 
c chronological:              6008        19.48 %  of conflicts
c conflicts:                 30837       363.00    per second
c decisions:                 70271       827.19    per second
c eliminated:                 1272        20.65 %  of all variables
c fixed:                       818        13.28 %  of all variables
c learned:                   30087        97.57 %  per conflict
c learned_lits:            5540514       100.00 %  learned literals
c minimized:                     0         0.00 %  learned literals
c shrunken:                3797597        68.54 %  learned literals
c minishrunken:             341036         6.16 %  learned literals
c propagations:            3499082         0.04 M  per second
c reduced:                   14235        46.16 %  per conflict
c rephased:                      7      4405.29    interval
c restarts:                    460        67.04    interval
c stabilizing:                   2        32.43 %  of conflicts
c substituted:                  19         0.31 %  of all variables
c subsumed:                  12073         0.34 %  of all clauses
c strengthened:               5240         0.15 %  of all clauses
c ternary:                    3376         0.71 %  of resolved
c vivified:                     37         0.00 %  of all clauses
c walked:                        1     30837.00    interval
c weakened:                   3001         3.09    average size
c 
c seconds are measured in process time for solving
c 
c --- [ resources ] ----------------------------------------------------------
c 
c total process time since initialization:       105.02    seconds
c total real time since initialization:          107.53    seconds
c maximum resident set size of process:         1743.13    MB
c 
c --- [ shutting down ] ------------------------------------------------------
c 
c exit 10
WARNING! DIMACS header mismatch: wrong number of variables.
============================[ Problem Statistics ]=============================
|                                                                             |
|  Number of variables:          3756                                         |
|  Number of clauses:          301059                                         |
|  Parse time:                   1.84 s                                       |
|  Simplification time:          0.04 s                                       |
|                                                                             |
============================[ Search Statistics ]====================================================
| Conflicts |          ORIGINAL         |          LEARNT          | Num Sols |      SUBGRAPHS      |
|           |    Vars  Clauses Literals |    Limit  Clauses Lit/Cl |          | Canonical Noncanon. |
=====================================================================================================
|       163 |    3664   301122 30076283 |     2000      163     35 |        0 |        38        63 |
|       342 |    3664   301151 30076872 |     2000      342     45 |        0 |        75        92 |
|       582 |    3664   301166 30077290 |     2000      582     60 |        0 |        76       107 |
|      1016 |    3664   301263 30078759 |     2000     1016     60 |        0 |       113       204 |
|      1531 |    3664   301272 30078962 |     2000     1531     76 |        0 |       120       213 |
|      2367 |    3664   301349 30080479 |     3603     1370     44 |        0 |       158       290 |
|      3592 |    3664   301435 30082295 |     3603     2595     60 |        0 |       202       376 |
|      5408 |    3664   301543 30083753 |     5001     2609     38 |        0 |       263       484 |
|      8050 |    3664   301623 30084979 |     6303     2753     32 |        0 |       281       564 |
|     12072 |    3664   301801 30087574 |     7552     3624     30 |        0 |       380       742 |
|     18094 |    3664   302057 30091030 |     8776     5870     43 |        0 |       462       998 |
|     26934 |    3664   302248 30094324 |    11209     5343     23 |        0 |       571      1189 |
|     40081 |    3664   302421 30097784 |    13611     6692     22 |        0 |       656      1362 |
|     59841 |    3664   302720 30102033 |    16007    12248     39 |        0 |       800      1661 |
|     89208 |    3664   302895 30104935 |    19608    15816     41 |        0 |       878      1836 |
|    135320 |    3634   305218 30134115 |    24410    19130     47 |        0 |      1599      4159 |
|    203503 |    3633   307717 30163969 |    30419    20322     37 |        0 |      2566      6658 |
|    304890 |    3620   310578 30198428 |    37611    21501     32 |        0 |      4020      9519 |
=====================================================================================================
Number of solutions   : 0
Canonical subgraphs   : 4645           (9 /sec)
          order  3    : 1              (166667 /sec)
          order  4    : 1              (500000 /sec)
          order  5    : 1              (250000 /sec)
          order  6    : 1              (55556 /sec)
          order  7    : 1              (8772 /sec)
          order  8    : 2              (1361 /sec)
          order  9    : 6              (315 /sec)
          order 10    : 17             (76 /sec)
          order 11    : 72             (21 /sec)
          order 12    : 388            (6 /sec)
          order 13    : 883            (9 /sec)
          order 14    : 485            (6 /sec)
          order 15    : 530            (7 /sec)
          order 16    : 844            (13 /sec)
          order 17    : 650            (13 /sec)
          order 18    : 523            (11 /sec)
          order 19    : 153            (12 /sec)
          order 20    : 50             (12 /sec)
          order 21    : 37             (12 /sec)
          order 22    : 0              (-nan /sec)
Noncanonical subgraphs: 11099          (243 /sec)
          order  3    : 0              (-nan /sec)
          order  4    : 0              (-nan /sec)
          order  5    : 0              (-nan /sec)
          order  6    : 0              (-nan /sec)
          order  7    : 0              (-nan /sec)
          order  8    : 0              (-nan /sec)
          order  9    : 0              (-nan /sec)
          order 10    : 0              (-nan /sec)
          order 11    : 0              (-nan /sec)
          order 12    : 0              (-nan /sec)
          order 13    : 2672           (7308 /sec)
          order 14    : 4152           (1015 /sec)
          order 15    : 1043           (780 /sec)
          order 16    : 2635           (95 /sec)
          order 17    : 323            (91 /sec)
          order 18    : 235            (50 /sec)
          order 19    : 0              (-nan /sec)
          order 20    : 0              (-nan /sec)
          order 21    : 0              (-nan /sec)
Canonicity checking   : 502.181 s
Noncanonicity checking: 45.6489 s
Total canonicity time : 547.83 s
database reductions   : 33
restarts              : 956
conflicts             : 395433         (543 /sec)
decisions             : 533035         (0.00 % random) (732 /sec)
propagations          : 19303655       (26494 /sec)
conflict literals     : 34556877       (56.90 % deleted)
actual reward         : 0.271574
Memory used           : 375.00 MB
CPU time              : 728.597 s

UNSATISFIABLE
